p tw 225 47251 2 
1 3 
1 4 
1 5 
1 6 
1 7 
1 8 
1 9 
1 10 
1 11 
1 12 
1 13 
1 14 
1 15 
1 16 
1 30 
1 31 
1 33 
1 46 
1 55 
1 61 
1 73 
1 76 
1 86 
1 91 
1 104 
1 106 
1 114 
1 121 
1 126 
1 136 
1 143 
1 151 
1 154 
1 166 
1 172 
1 181 
1 185 
1 196 
1 197 
1 211 
1 222 
2 3 
2 4 
2 5 
2 6 
2 7 
2 8 
2 9 
2 10 
2 11 
2 12 
2 13 
2 14 
2 15 
2 16 
2 17 
2 32 
2 45 
2 47 
2 54 
2 62 
2 70 
2 77 
2 79 
2 92 
2 103 
2 107 
2 119 
2 122 
2 131 
2 137 
2 142 
2 152 
2 155 
2 167 
2 171 
2 182 
2 192 
2 197 
2 198 
2 212 
2 218 
3 4 
3 5 
3 6 
3 7 
3 8 
3 9 
3 10 
3 11 
3 12 
3 13 
3 14 
3 15 
3 18 
3 24 
3 33 
3 37 
3 48 
3 56 
3 61 
3 63 
3 78 
3 80 
3 92 
3 93 
3 108 
3 115 
3 123 
3 135 
3 138 
3 149 
3 153 
3 163 
3 168 
3 177 
3 183 
3 184 
3 198 
3 203 
3 213 
3 216 
4 5 
4 6 
4 7 
4 8 
4 9 
4 10 
4 11 
4 12 
4 13 
4 14 
4 15 
4 19 
4 28 
4 34 
4 38 
4 48 
4 49 
4 64 
4 66 
4 76 
4 79 
4 94 
4 100 
4 109 
4 112 
4 124 
4 132 
4 139 
4 140 
4 154 
4 165 
4 169 
4 179 
4 184 
4 189 
4 199 
4 206 
4 212 
4 214 
5 6 
5 7 
5 8 
5 9 
5 10 
5 11 
5 12 
5 13 
5 14 
5 15 
5 20 
5 22 
5 35 
5 39 
5 50 
5 51 
5 65 
5 71 
5 80 
5 85 
5 95 
5 98 
5 108 
5 110 
5 122 
5 125 
5 140 
5 147 
5 151 
5 155 
5 170 
5 180 
5 185 
5 194 
5 200 
5 208 
5 214 
5 215 
6 7 
6 8 
6 9 
6 10 
6 11 
6 12 
6 13 
6 14 
6 15 
6 18 
6 21 
6 34 
6 36 
6 51 
6 59 
6 66 
6 72 
6 81 
6 83 
6 96 
6 105 
6 106 
6 111 
6 126 
6 127 
6 141 
6 148 
6 156 
6 161 
6 170 
6 171 
6 182 
6 186 
6 201 
6 205 
6 216 
6 219 
7 8 
7 9 
7 10 
7 11 
7 12 
7 13 
7 14 
7 15 
7 22 
7 23 
7 36 
7 37 
7 52 
7 57 
7 65 
7 67 
7 82 
7 90 
7 97 
7 99 
7 107 
7 112 
7 121 
7 127 
7 142 
7 146 
7 157 
7 164 
7 172 
7 178 
7 183 
7 187 
7 199 
7 202 
7 217 
7 220 
8 9 
8 10 
8 11 
8 12 
8 13 
8 14 
8 15 
8 19 
8 23 
8 35 
8 38 
8 53 
8 58 
8 62 
8 68 
8 83 
8 87 
8 91 
8 98 
8 111 
8 113 
8 128 
8 129 
8 143 
8 145 
8 153 
8 158 
8 173 
8 176 
8 187 
8 188 
8 203 
8 209 
8 218 
8 225 
9 10 
9 11 
9 12 
9 13 
9 14 
9 15 
9 24 
9 26 
9 39 
9 40 
9 49 
9 54 
9 68 
9 69 
9 82 
9 84 
9 96 
9 99 
9 110 
9 114 
9 129 
9 134 
9 138 
9 144 
9 152 
9 159 
9 166 
9 174 
9 189 
9 195 
9 204 
9 207 
9 219 
9 223 
10 11 
10 12 
10 13 
10 14 
10 15 
10 20 
10 25 
10 40 
10 43 
10 52 
10 55 
10 70 
10 75 
10 85 
10 89 
10 100 
10 102 
10 115 
10 116 
10 124 
10 130 
10 137 
10 145 
10 159 
10 160 
10 173 
10 175 
10 181 
10 190 
10 201 
10 205 
10 213 
10 220 
11 12 
11 13 
11 14 
11 15 
11 26 
11 27 
11 41 
11 44 
11 47 
11 56 
11 67 
11 71 
11 81 
11 86 
11 94 
11 101 
11 116 
11 118 
11 123 
11 131 
11 146 
11 150 
11 160 
11 161 
11 174 
11 176 
11 188 
11 191 
11 196 
11 206 
11 215 
11 221 
12 13 
12 14 
12 15 
12 17 
12 27 
12 31 
12 42 
12 57 
12 60 
12 72 
12 74 
12 87 
12 88 
12 93 
12 102 
12 109 
12 117 
12 128 
12 132 
12 144 
12 147 
12 157 
12 162 
12 175 
12 177 
12 186 
12 192 
12 200 
12 207 
12 221 
12 222 
13 14 
13 15 
13 21 
13 28 
13 41 
13 43 
13 46 
13 58 
13 69 
13 73 
13 78 
13 88 
13 97 
13 103 
13 117 
13 118 
13 125 
13 133 
13 139 
13 148 
13 158 
13 163 
13 167 
13 178 
13 190 
13 193 
13 208 
13 210 
13 223 
13 224 
14 15 
14 25 
14 29 
14 42 
14 44 
14 53 
14 59 
14 64 
14 74 
14 77 
14 89 
14 95 
14 104 
14 119 
14 120 
14 133 
14 134 
14 136 
14 149 
14 156 
14 164 
14 168 
14 179 
14 191 
14 194 
14 204 
14 209 
14 217 
14 224 
15 29 
15 30 
15 32 
15 45 
15 50 
15 60 
15 63 
15 75 
15 84 
15 90 
15 101 
15 105 
15 113 
15 120 
15 130 
15 135 
15 141 
15 150 
15 162 
15 165 
15 169 
15 180 
15 193 
15 195 
15 202 
15 210 
15 211 
15 225 
16 17 
16 18 
16 19 
16 20 
16 21 
16 22 
16 23 
16 24 
16 25 
16 26 
16 27 
16 28 
16 29 
16 30 
16 31 
16 45 
16 46 
16 54 
16 61 
16 70 
16 76 
16 79 
16 91 
16 103 
16 106 
16 119 
16 121 
16 131 
16 136 
16 142 
16 151 
16 155 
16 166 
16 171 
16 181 
16 192 
16 196 
16 198 
16 211 
16 218 
17 18 
17 19 
17 20 
17 21 
17 22 
17 23 
17 24 
17 25 
17 26 
17 27 
17 28 
17 29 
17 30 
17 31 
17 32 
17 47 
17 60 
17 62 
17 74 
17 77 
17 88 
17 92 
17 93 
17 107 
17 109 
17 122 
17 128 
17 137 
17 144 
17 152 
17 157 
17 167 
17 175 
17 182 
17 186 
17 197 
17 200 
17 212 
17 221 
18 19 
18 20 
18 21 
18 22 
18 23 
18 24 
18 25 
18 26 
18 27 
18 28 
18 29 
18 30 
18 33 
18 34 
18 48 
18 59 
18 63 
18 72 
18 78 
18 83 
18 93 
18 105 
18 106 
18 108 
18 123 
18 127 
18 138 
18 148 
18 153 
18 161 
18 168 
18 170 
18 182 
18 183 
18 198 
18 205 
18 213 
18 219 
19 20 
19 21 
19 22 
19 23 
19 24 
19 25 
19 26 
19 27 
19 28 
19 29 
19 30 
19 34 
19 35 
19 49 
19 58 
19 62 
19 64 
19 79 
19 87 
19 91 
19 94 
19 109 
19 111 
19 124 
19 129 
19 139 
19 145 
19 153 
19 154 
19 169 
19 176 
19 184 
19 187 
19 199 
19 209 
19 214 
19 225 
20 21 
20 22 
20 23 
20 24 
20 25 
20 26 
20 27 
20 28 
20 29 
20 30 
20 35 
20 43 
20 50 
20 52 
20 65 
20 75 
20 80 
20 89 
20 95 
20 102 
20 110 
20 116 
20 124 
20 125 
20 137 
20 140 
20 155 
20 159 
20 170 
20 173 
20 181 
20 185 
20 200 
20 201 
20 213 
20 215 
21 22 
21 23 
21 24 
21 25 
21 26 
21 27 
21 28 
21 29 
21 30 
21 36 
21 41 
21 46 
21 51 
21 66 
21 69 
21 78 
21 81 
21 96 
21 97 
21 111 
21 117 
21 125 
21 126 
21 139 
21 141 
21 156 
21 158 
21 167 
21 171 
21 186 
21 190 
21 201 
21 210 
21 216 
21 224 
22 23 
22 24 
22 25 
22 26 
22 27 
22 28 
22 29 
22 30 
22 37 
22 39 
22 51 
22 52 
22 67 
22 71 
22 82 
22 85 
22 97 
22 98 
22 108 
22 112 
22 122 
22 127 
22 142 
22 147 
22 151 
22 157 
22 172 
22 180 
22 187 
22 194 
22 202 
22 208 
22 214 
22 217 
23 24 
23 25 
23 26 
23 27 
23 28 
23 29 
23 30 
23 36 
23 38 
23 53 
23 57 
23 65 
23 68 
23 83 
23 90 
23 98 
23 99 
23 107 
23 113 
23 121 
23 128 
23 143 
23 146 
23 158 
23 164 
23 173 
23 178 
23 183 
23 188 
23 199 
23 203 
23 218 
23 220 
24 25 
24 26 
24 27 
24 28 
24 29 
24 30 
24 37 
24 39 
24 54 
24 56 
24 61 
24 69 
24 80 
24 84 
24 92 
24 99 
24 114 
24 115 
24 129 
24 135 
24 144 
24 149 
24 159 
24 163 
24 174 
24 177 
24 184 
24 189 
24 203 
24 204 
24 216 
24 219 
25 26 
25 27 
25 28 
25 29 
25 30 
25 40 
25 42 
25 53 
25 55 
25 64 
25 70 
25 77 
25 85 
25 95 
25 100 
25 115 
25 120 
25 130 
25 133 
25 136 
25 145 
25 156 
25 160 
25 168 
25 175 
25 190 
25 191 
25 204 
25 205 
25 217 
25 220 
26 27 
26 28 
26 29 
26 30 
26 40 
26 41 
26 49 
26 56 
26 68 
26 71 
26 82 
26 86 
26 96 
26 101 
26 110 
26 116 
26 131 
26 134 
26 138 
26 146 
26 152 
26 161 
26 166 
26 176 
26 191 
26 195 
26 206 
26 207 
26 221 
26 223 
27 28 
27 29 
27 30 
27 42 
27 44 
27 47 
27 57 
27 67 
27 72 
27 81 
27 87 
27 94 
27 102 
27 117 
27 118 
27 123 
27 132 
27 147 
27 150 
27 160 
27 162 
27 174 
27 177 
27 188 
27 192 
27 196 
27 207 
27 215 
27 222 
28 29 
28 30 
28 38 
28 43 
28 48 
28 58 
28 66 
28 73 
28 76 
28 88 
28 100 
28 103 
28 112 
28 118 
28 132 
28 133 
28 140 
28 148 
28 163 
28 165 
28 178 
28 179 
28 189 
28 193 
28 206 
28 208 
28 212 
28 223 
29 30 
29 32 
29 44 
29 50 
29 59 
29 63 
29 74 
29 84 
29 89 
29 101 
29 104 
29 113 
29 119 
29 130 
29 134 
29 141 
29 149 
29 162 
29 164 
29 169 
29 179 
29 193 
29 194 
29 202 
29 209 
29 211 
29 224 
30 33 
30 45 
30 55 
30 60 
30 73 
30 75 
30 86 
30 90 
30 104 
30 105 
30 114 
30 120 
30 126 
30 135 
30 143 
30 150 
30 154 
30 165 
30 172 
30 180 
30 185 
30 195 
30 197 
30 210 
30 222 
30 225 
31 32 
31 33 
31 34 
31 35 
31 36 
31 37 
31 38 
31 39 
31 40 
31 41 
31 42 
31 43 
31 44 
31 45 
31 46 
31 60 
31 61 
31 74 
31 76 
31 88 
31 91 
31 93 
31 106 
31 109 
31 121 
31 128 
31 136 
31 144 
31 151 
31 157 
31 166 
31 175 
31 181 
31 186 
31 196 
31 200 
31 211 
31 221 
32 33 
32 34 
32 35 
32 36 
32 37 
32 38 
32 39 
32 40 
32 41 
32 42 
32 43 
32 44 
32 45 
32 47 
32 50 
32 62 
32 63 
32 77 
32 84 
32 92 
32 101 
32 107 
32 113 
32 122 
32 130 
32 137 
32 141 
32 152 
32 162 
32 167 
32 169 
32 182 
32 193 
32 197 
32 202 
32 211 
32 212 
33 34 
33 35 
33 36 
33 37 
33 38 
33 39 
33 40 
33 41 
33 42 
33 43 
33 44 
33 45 
33 48 
33 55 
33 63 
33 73 
33 78 
33 86 
33 93 
33 104 
33 108 
33 114 
33 123 
33 126 
33 138 
33 143 
33 153 
33 154 
33 168 
33 172 
33 183 
33 185 
33 197 
33 198 
33 213 
33 222 
34 35 
34 36 
34 37 
34 38 
34 39 
34 40 
34 41 
34 42 
34 43 
34 44 
34 45 
34 49 
34 59 
34 64 
34 72 
34 79 
34 83 
34 94 
34 105 
34 106 
34 109 
34 124 
34 127 
34 139 
34 148 
34 154 
34 161 
34 169 
34 170 
34 182 
34 184 
34 199 
34 205 
34 214 
34 219 
35 36 
35 37 
35 38 
35 39 
35 40 
35 41 
35 42 
35 43 
35 44 
35 45 
35 50 
35 58 
35 62 
35 65 
35 80 
35 87 
35 91 
35 95 
35 110 
35 111 
35 125 
35 129 
35 140 
35 145 
35 153 
35 155 
35 170 
35 176 
35 185 
35 187 
35 200 
35 209 
35 215 
35 225 
36 37 
36 38 
36 39 
36 40 
36 41 
36 42 
36 43 
36 44 
36 45 
36 51 
36 57 
36 65 
36 66 
36 81 
36 90 
36 96 
36 99 
36 107 
36 111 
36 121 
36 126 
36 141 
36 146 
36 156 
36 164 
36 171 
36 178 
36 183 
36 186 
36 199 
36 201 
36 216 
36 220 
37 38 
37 39 
37 40 
37 41 
37 42 
37 43 
37 44 
37 45 
37 52 
37 56 
37 61 
37 67 
37 80 
37 82 
37 92 
37 97 
37 112 
37 115 
37 127 
37 135 
37 142 
37 149 
37 157 
37 163 
37 172 
37 177 
37 184 
37 187 
37 202 
37 203 
37 216 
37 217 
38 39 
38 40 
38 41 
38 42 
38 43 
38 44 
38 45 
38 48 
38 53 
38 66 
38 68 
38 76 
38 83 
38 98 
38 100 
38 112 
38 113 
38 128 
38 132 
38 140 
38 143 
38 158 
38 165 
38 173 
38 179 
38 188 
38 189 
38 203 
38 206 
38 212 
38 218 
39 40 
39 41 
39 42 
39 43 
39 44 
39 45 
39 51 
39 54 
39 69 
39 71 
39 84 
39 85 
39 98 
39 99 
39 108 
39 114 
39 122 
39 129 
39 144 
39 147 
39 151 
39 159 
39 174 
39 180 
39 189 
39 194 
39 204 
39 208 
39 214 
39 219 
40 41 
40 42 
40 43 
40 44 
40 45 
40 49 
40 55 
40 68 
40 70 
40 82 
40 85 
40 96 
40 100 
40 110 
40 115 
40 130 
40 134 
40 138 
40 145 
40 152 
40 160 
40 166 
40 175 
40 190 
40 195 
40 205 
40 207 
40 220 
40 223 
41 42 
41 43 
41 44 
41 45 
41 46 
41 56 
41 69 
41 71 
41 78 
41 86 
41 97 
41 101 
41 116 
41 117 
41 125 
41 131 
41 139 
41 146 
41 158 
41 161 
41 167 
41 176 
41 190 
41 191 
41 206 
41 210 
41 221 
41 224 
42 43 
42 44 
42 45 
42 53 
42 57 
42 64 
42 72 
42 77 
42 87 
42 95 
42 102 
42 117 
42 120 
42 132 
42 133 
42 136 
42 147 
42 156 
42 162 
42 168 
42 177 
42 191 
42 192 
42 204 
42 207 
42 217 
42 222 
43 44 
43 45 
43 52 
43 58 
43 73 
43 75 
43 88 
43 89 
43 102 
43 103 
43 116 
43 118 
43 124 
43 133 
43 137 
43 148 
43 159 
43 163 
43 173 
43 178 
43 181 
43 193 
43 201 
43 208 
43 213 
43 223 
44 45 
44 47 
44 59 
44 67 
44 74 
44 81 
44 89 
44 94 
44 104 
44 118 
44 119 
44 123 
44 134 
44 149 
44 150 
44 160 
44 164 
44 174 
44 179 
44 188 
44 194 
44 196 
44 209 
44 215 
44 224 
45 54 
45 60 
45 70 
45 75 
45 79 
45 90 
45 103 
45 105 
45 119 
45 120 
45 131 
45 135 
45 142 
45 150 
45 155 
45 165 
45 171 
45 180 
45 192 
45 195 
45 198 
45 210 
45 218 
45 225 
46 47 
46 48 
46 49 
46 50 
46 51 
46 52 
46 53 
46 54 
46 55 
46 56 
46 57 
46 58 
46 59 
46 60 
46 61 
46 69 
46 76 
46 78 
46 91 
46 97 
46 106 
46 117 
46 121 
46 125 
46 136 
46 139 
46 151 
46 158 
46 166 
46 167 
46 181 
46 190 
46 196 
46 210 
46 211 
46 224 
47 48 
47 49 
47 50 
47 51 
47 52 
47 53 
47 54 
47 55 
47 56 
47 57 
47 58 
47 59 
47 60 
47 62 
47 67 
47 77 
47 81 
47 92 
47 94 
47 107 
47 118 
47 122 
47 123 
47 137 
47 150 
47 152 
47 160 
47 167 
47 174 
47 182 
47 188 
47 196 
47 197 
47 212 
47 215 
48 49 
48 50 
48 51 
48 52 
48 53 
48 54 
48 55 
48 56 
48 57 
48 58 
48 59 
48 60 
48 63 
48 66 
48 76 
48 78 
48 93 
48 100 
48 108 
48 112 
48 123 
48 132 
48 138 
48 140 
48 153 
48 165 
48 168 
48 179 
48 183 
48 189 
48 198 
48 206 
48 212 
48 213 
49 50 
49 51 
49 52 
49 53 
49 54 
49 55 
49 56 
49 57 
49 58 
49 59 
49 60 
49 64 
49 68 
49 79 
49 82 
49 94 
49 96 
49 109 
49 110 
49 124 
49 134 
49 138 
49 139 
49 152 
49 154 
49 166 
49 169 
49 184 
49 195 
49 199 
49 207 
49 214 
49 223 
50 51 
50 52 
50 53 
50 54 
50 55 
50 56 
50 57 
50 58 
50 59 
50 60 
50 63 
50 65 
50 80 
50 84 
50 95 
50 101 
50 110 
50 113 
50 125 
50 130 
50 140 
50 141 
50 155 
50 162 
50 169 
50 170 
50 185 
50 193 
50 200 
50 202 
50 211 
50 215 
51 52 
51 53 
51 54 
51 55 
51 56 
51 57 
51 58 
51 59 
51 60 
51 66 
51 71 
51 81 
51 85 
51 96 
51 98 
51 108 
51 111 
51 122 
51 126 
51 141 
51 147 
51 151 
51 156 
51 171 
51 180 
51 186 
51 194 
51 201 
51 208 
51 214 
51 216 
52 53 
52 54 
52 55 
52 56 
52 57 
52 58 
52 59 
52 60 
52 67 
52 75 
52 82 
52 89 
52 97 
52 102 
52 112 
52 116 
52 124 
52 127 
52 137 
52 142 
52 157 
52 159 
52 172 
52 173 
52 181 
52 187 
52 201 
52 202 
52 213 
52 217 
53 54 
53 55 
53 56 
53 57 
53 58 
53 59 
53 60 
53 64 
53 68 
53 77 
53 83 
53 95 
53 98 
53 113 
53 120 
53 128 
53 133 
53 136 
53 143 
53 156 
53 158 
53 168 
53 173 
53 188 
53 191 
53 203 
53 204 
53 217 
53 218 
54 55 
54 56 
54 57 
54 58 
54 59 
54 60 
54 69 
54 70 
54 79 
54 84 
54 99 
54 103 
54 114 
54 119 
54 129 
54 131 
54 142 
54 144 
54 155 
54 159 
54 171 
54 174 
54 189 
54 192 
54 198 
54 204 
54 218 
54 219 
55 56 
55 57 
55 58 
55 59 
55 60 
55 70 
55 73 
55 85 
55 86 
55 100 
55 104 
55 114 
55 115 
55 126 
55 130 
55 143 
55 145 
55 154 
55 160 
55 172 
55 175 
55 185 
55 190 
55 197 
55 205 
55 220 
55 222 
56 57 
56 58 
56 59 
56 60 
56 61 
56 71 
56 80 
56 86 
56 92 
56 101 
56 115 
56 116 
56 131 
56 135 
56 146 
56 149 
56 161 
56 163 
56 176 
56 177 
56 184 
56 191 
56 203 
56 206 
56 216 
56 221 
57 58 
57 59 
57 60 
57 65 
57 72 
57 87 
57 90 
57 99 
57 102 
57 107 
57 117 
57 121 
57 132 
57 146 
57 147 
57 162 
57 164 
57 177 
57 178 
57 183 
57 192 
57 199 
57 207 
57 220 
57 222 
58 59 
58 60 
58 62 
58 73 
58 87 
58 88 
58 91 
58 103 
58 111 
58 118 
58 129 
58 133 
58 145 
58 148 
58 153 
58 163 
58 176 
58 178 
58 187 
58 193 
58 208 
58 209 
58 223 
58 225 
59 60 
59 72 
59 74 
59 83 
59 89 
59 104 
59 105 
59 106 
59 119 
59 127 
59 134 
59 148 
59 149 
59 161 
59 164 
59 170 
59 179 
59 182 
59 194 
59 205 
59 209 
59 219 
59 224 
60 74 
60 75 
60 88 
60 90 
60 93 
60 105 
60 109 
60 120 
60 128 
60 135 
60 144 
60 150 
60 157 
60 165 
60 175 
60 180 
60 186 
60 195 
60 200 
60 210 
60 221 
60 225 
61 62 
61 63 
61 64 
61 65 
61 66 
61 67 
61 68 
61 69 
61 70 
61 71 
61 72 
61 73 
61 74 
61 75 
61 76 
61 80 
61 91 
61 92 
61 106 
61 115 
61 121 
61 135 
61 136 
61 149 
61 151 
61 163 
61 166 
61 177 
61 181 
61 184 
61 196 
61 203 
61 211 
61 216 
62 63 
62 64 
62 65 
62 66 
62 67 
62 68 
62 69 
62 70 
62 71 
62 72 
62 73 
62 74 
62 75 
62 77 
62 87 
62 91 
62 92 
62 107 
62 111 
62 122 
62 129 
62 137 
62 145 
62 152 
62 153 
62 167 
62 176 
62 182 
62 187 
62 197 
62 209 
62 212 
62 225 
63 64 
63 65 
63 66 
63 67 
63 68 
63 69 
63 70 
63 71 
63 72 
63 73 
63 74 
63 75 
63 78 
63 84 
63 93 
63 101 
63 108 
63 113 
63 123 
63 130 
63 138 
63 141 
63 153 
63 162 
63 168 
63 169 
63 183 
63 193 
63 198 
63 202 
63 211 
63 213 
64 65 
64 66 
64 67 
64 68 
64 69 
64 70 
64 71 
64 72 
64 73 
64 74 
64 75 
64 77 
64 79 
64 94 
64 95 
64 109 
64 120 
64 124 
64 133 
64 136 
64 139 
64 154 
64 156 
64 168 
64 169 
64 184 
64 191 
64 199 
64 204 
64 214 
64 217 
65 66 
65 67 
65 68 
65 69 
65 70 
65 71 
65 72 
65 73 
65 74 
65 75 
65 80 
65 90 
65 95 
65 99 
65 107 
65 110 
65 121 
65 125 
65 140 
65 146 
65 155 
65 164 
65 170 
65 178 
65 183 
65 185 
65 199 
65 200 
65 215 
65 220 
66 67 
66 68 
66 69 
66 70 
66 71 
66 72 
66 73 
66 74 
66 75 
66 76 
66 81 
66 96 
66 100 
66 111 
66 112 
66 126 
66 132 
66 140 
66 141 
66 156 
66 165 
66 171 
66 179 
66 186 
66 189 
66 201 
66 206 
66 212 
66 216 
67 68 
67 69 
67 70 
67 71 
67 72 
67 73 
67 74 
67 75 
67 81 
67 82 
67 94 
67 97 
67 112 
67 118 
67 123 
67 127 
67 142 
67 150 
67 157 
67 160 
67 172 
67 174 
67 187 
67 188 
67 196 
67 202 
67 215 
67 217 
68 69 
68 70 
68 71 
68 72 
68 73 
68 74 
68 75 
68 82 
68 83 
68 96 
68 98 
68 110 
68 113 
68 128 
68 134 
68 138 
68 143 
68 152 
68 158 
68 166 
68 173 
68 188 
68 195 
68 203 
68 207 
68 218 
68 223 
69 70 
69 71 
69 72 
69 73 
69 74 
69 75 
69 78 
69 84 
69 97 
69 99 
69 114 
69 117 
69 125 
69 129 
69 139 
69 144 
69 158 
69 159 
69 167 
69 174 
69 189 
69 190 
69 204 
69 210 
69 219 
69 224 
70 71 
70 72 
70 73 
70 74 
70 75 
70 79 
70 85 
70 100 
70 103 
70 115 
70 119 
70 130 
70 131 
70 142 
70 145 
70 155 
70 160 
70 171 
70 175 
70 190 
70 192 
70 198 
70 205 
70 218 
70 220 
71 72 
71 73 
71 74 
71 75 
71 85 
71 86 
71 98 
71 101 
71 108 
71 116 
71 122 
71 131 
71 146 
71 147 
71 151 
71 161 
71 176 
71 180 
71 191 
71 194 
71 206 
71 208 
71 214 
71 221 
72 73 
72 74 
72 75 
72 83 
72 87 
72 102 
72 105 
72 106 
72 117 
72 127 
72 132 
72 147 
72 148 
72 161 
72 162 
72 170 
72 177 
72 182 
72 192 
72 205 
72 207 
72 219 
72 222 
73 74 
73 75 
73 86 
73 88 
73 103 
73 104 
73 114 
73 118 
73 126 
73 133 
73 143 
73 148 
73 154 
73 163 
73 172 
73 178 
73 185 
73 193 
73 197 
73 208 
73 222 
73 223 
74 75 
74 88 
74 89 
74 93 
74 104 
74 109 
74 119 
74 128 
74 134 
74 144 
74 149 
74 157 
74 164 
74 175 
74 179 
74 186 
74 194 
74 200 
74 209 
74 221 
74 224 
75 89 
75 90 
75 102 
75 105 
75 116 
75 120 
75 124 
75 135 
75 137 
75 150 
75 159 
75 165 
75 173 
75 180 
75 181 
75 195 
75 201 
75 210 
75 213 
75 225 
76 77 
76 78 
76 79 
76 80 
76 81 
76 82 
76 83 
76 84 
76 85 
76 86 
76 87 
76 88 
76 89 
76 90 
76 91 
76 100 
76 106 
76 112 
76 121 
76 132 
76 136 
76 140 
76 151 
76 165 
76 166 
76 179 
76 181 
76 189 
76 196 
76 206 
76 211 
76 212 
77 78 
77 79 
77 80 
77 81 
77 82 
77 83 
77 84 
77 85 
77 86 
77 87 
77 88 
77 89 
77 90 
77 92 
77 95 
77 107 
77 120 
77 122 
77 133 
77 136 
77 137 
77 152 
77 156 
77 167 
77 168 
77 182 
77 191 
77 197 
77 204 
77 212 
77 217 
78 79 
78 80 
78 81 
78 82 
78 83 
78 84 
78 85 
78 86 
78 87 
78 88 
78 89 
78 90 
78 93 
78 97 
78 108 
78 117 
78 123 
78 125 
78 138 
78 139 
78 153 
78 158 
78 167 
78 168 
78 183 
78 190 
78 198 
78 210 
78 213 
78 224 
79 80 
79 81 
79 82 
79 83 
79 84 
79 85 
79 86 
79 87 
79 88 
79 89 
79 90 
79 94 
79 103 
79 109 
79 119 
79 124 
79 131 
79 139 
79 142 
79 154 
79 155 
79 169 
79 171 
79 184 
79 192 
79 198 
79 199 
79 214 
79 218 
80 81 
80 82 
80 83 
80 84 
80 85 
80 86 
80 87 
80 88 
80 89 
80 90 
80 92 
80 95 
80 110 
80 115 
80 125 
80 135 
80 140 
80 149 
80 155 
80 163 
80 170 
80 177 
80 184 
80 185 
80 200 
80 203 
80 215 
80 216 
81 82 
81 83 
81 84 
81 85 
81 86 
81 87 
81 88 
81 89 
81 90 
81 94 
81 96 
81 111 
81 118 
81 123 
81 126 
81 141 
81 150 
81 156 
81 160 
81 171 
81 174 
81 186 
81 188 
81 196 
81 201 
81 215 
81 216 
82 83 
82 84 
82 85 
82 86 
82 87 
82 88 
82 89 
82 90 
82 96 
82 97 
82 110 
82 112 
82 127 
82 134 
82 138 
82 142 
82 152 
82 157 
82 166 
82 172 
82 187 
82 195 
82 202 
82 207 
82 217 
82 223 
83 84 
83 85 
83 86 
83 87 
83 88 
83 89 
83 90 
83 98 
83 105 
83 106 
83 113 
83 127 
83 128 
83 143 
83 148 
83 158 
83 161 
83 170 
83 173 
83 182 
83 188 
83 203 
83 205 
83 218 
83 219 
84 85 
84 86 
84 87 
84 88 
84 89 
84 90 
84 99 
84 101 
84 113 
84 114 
84 129 
84 130 
84 141 
84 144 
84 159 
84 162 
84 169 
84 174 
84 189 
84 193 
84 202 
84 204 
84 211 
84 219 
85 86 
85 87 
85 88 
85 89 
85 90 
85 98 
85 100 
85 108 
85 115 
85 122 
85 130 
85 145 
85 147 
85 151 
85 160 
85 175 
85 180 
85 190 
85 194 
85 205 
85 208 
85 214 
85 220 
86 87 
86 88 
86 89 
86 90 
86 101 
86 104 
86 114 
86 116 
86 126 
86 131 
86 143 
86 146 
86 154 
86 161 
86 172 
86 176 
86 185 
86 191 
86 197 
86 206 
86 221 
86 222 
87 88 
87 89 
87 90 
87 91 
87 102 
87 111 
87 117 
87 129 
87 132 
87 145 
87 147 
87 153 
87 162 
87 176 
87 177 
87 187 
87 192 
87 207 
87 209 
87 222 
87 225 
88 89 
88 90 
88 93 
88 103 
88 109 
88 118 
88 128 
88 133 
88 144 
88 148 
88 157 
88 163 
88 175 
88 178 
88 186 
88 193 
88 200 
88 208 
88 221 
88 223 
89 90 
89 102 
89 104 
89 116 
89 119 
89 124 
89 134 
89 137 
89 149 
89 159 
89 164 
89 173 
89 179 
89 181 
89 194 
89 201 
89 209 
89 213 
89 224 
90 99 
90 105 
90 107 
90 120 
90 121 
90 135 
90 146 
90 150 
90 164 
90 165 
90 178 
90 180 
90 183 
90 195 
90 199 
90 210 
90 220 
90 225 
91 92 
91 93 
91 94 
91 95 
91 96 
91 97 
91 98 
91 99 
91 100 
91 101 
91 102 
91 103 
91 104 
91 105 
91 106 
91 111 
91 121 
91 129 
91 136 
91 145 
91 151 
91 153 
91 166 
91 176 
91 181 
91 187 
91 196 
91 209 
91 211 
91 225 
92 93 
92 94 
92 95 
92 96 
92 97 
92 98 
92 99 
92 100 
92 101 
92 102 
92 103 
92 104 
92 105 
92 107 
92 115 
92 122 
92 135 
92 137 
92 149 
92 152 
92 163 
92 167 
92 177 
92 182 
92 184 
92 197 
92 203 
92 212 
92 216 
93 94 
93 95 
93 96 
93 97 
93 98 
93 99 
93 100 
93 101 
93 102 
93 103 
93 104 
93 105 
93 108 
93 109 
93 123 
93 128 
93 138 
93 144 
93 153 
93 157 
93 168 
93 175 
93 183 
93 186 
93 198 
93 200 
93 213 
93 221 
94 95 
94 96 
94 97 
94 98 
94 99 
94 100 
94 101 
94 102 
94 103 
94 104 
94 105 
94 109 
94 118 
94 123 
94 124 
94 139 
94 150 
94 154 
94 160 
94 169 
94 174 
94 184 
94 188 
94 196 
94 199 
94 214 
94 215 
95 96 
95 97 
95 98 
95 99 
95 100 
95 101 
95 102 
95 103 
95 104 
95 105 
95 110 
95 120 
95 125 
95 133 
95 136 
95 140 
95 155 
95 156 
95 168 
95 170 
95 185 
95 191 
95 200 
95 204 
95 215 
95 217 
96 97 
96 98 
96 99 
96 100 
96 101 
96 102 
96 103 
96 104 
96 105 
96 110 
96 111 
96 126 
96 134 
96 138 
96 141 
96 152 
96 156 
96 166 
96 171 
96 186 
96 195 
96 201 
96 207 
96 216 
96 223 
97 98 
97 99 
97 100 
97 101 
97 102 
97 103 
97 104 
97 105 
97 112 
97 117 
97 125 
97 127 
97 139 
97 142 
97 157 
97 158 
97 167 
97 172 
97 187 
97 190 
97 202 
97 210 
97 217 
97 224 
98 99 
98 100 
98 101 
98 102 
98 103 
98 104 
98 105 
98 108 
98 113 
98 122 
98 128 
98 143 
98 147 
98 151 
98 158 
98 173 
98 180 
98 188 
98 194 
98 203 
98 208 
98 214 
98 218 
99 100 
99 101 
99 102 
99 103 
99 104 
99 105 
99 107 
99 114 
99 121 
99 129 
99 144 
99 146 
99 159 
99 164 
99 174 
99 178 
99 183 
99 189 
99 199 
99 204 
99 219 
99 220 
100 101 
100 102 
100 103 
100 104 
100 105 
100 112 
100 115 
100 130 
100 132 
100 140 
100 145 
100 160 
100 165 
100 175 
100 179 
100 189 
100 190 
100 205 
100 206 
100 212 
100 220 
101 102 
101 103 
101 104 
101 105 
101 113 
101 116 
101 130 
101 131 
101 141 
101 146 
101 161 
101 162 
101 169 
101 176 
101 191 
101 193 
101 202 
101 206 
101 211 
101 221 
102 103 
102 104 
102 105 
102 116 
102 117 
102 124 
102 132 
102 137 
102 147 
102 159 
102 162 
102 173 
102 177 
102 181 
102 192 
102 201 
102 207 
102 213 
102 222 
103 104 
103 105 
103 118 
103 119 
103 131 
103 133 
103 142 
103 148 
103 155 
103 163 
103 171 
103 178 
103 192 
103 193 
103 198 
103 208 
103 218 
103 223 
104 105 
104 114 
104 119 
104 126 
104 134 
104 143 
104 149 
104 154 
104 164 
104 172 
104 179 
104 185 
104 194 
104 197 
104 209 
104 222 
104 224 
105 106 
105 120 
105 127 
105 135 
105 148 
105 150 
105 161 
105 165 
105 170 
105 180 
105 182 
105 195 
105 205 
105 210 
105 219 
105 225 
106 107 
106 108 
106 109 
106 110 
106 111 
106 112 
106 113 
106 114 
106 115 
106 116 
106 117 
106 118 
106 119 
106 120 
106 121 
106 127 
106 136 
106 148 
106 151 
106 161 
106 166 
106 170 
106 181 
106 182 
106 196 
106 205 
106 211 
106 219 
107 108 
107 109 
107 110 
107 111 
107 112 
107 113 
107 114 
107 115 
107 116 
107 117 
107 118 
107 119 
107 120 
107 121 
107 122 
107 137 
107 146 
107 152 
107 164 
107 167 
107 178 
107 182 
107 183 
107 197 
107 199 
107 212 
107 220 
108 109 
108 110 
108 111 
108 112 
108 113 
108 114 
108 115 
108 116 
108 117 
108 118 
108 119 
108 120 
108 122 
108 123 
108 138 
108 147 
108 151 
108 153 
108 168 
108 180 
108 183 
108 194 
108 198 
108 208 
108 213 
108 214 
109 110 
109 111 
109 112 
109 113 
109 114 
109 115 
109 116 
109 117 
109 118 
109 119 
109 120 
109 124 
109 128 
109 139 
109 144 
109 154 
109 157 
109 169 
109 175 
109 184 
109 186 
109 199 
109 200 
109 214 
109 221 
110 111 
110 112 
110 113 
110 114 
110 115 
110 116 
110 117 
110 118 
110 119 
110 120 
110 125 
110 134 
110 138 
110 140 
110 152 
110 155 
110 166 
110 170 
110 185 
110 195 
110 200 
110 207 
110 215 
110 223 
111 112 
111 113 
111 114 
111 115 
111 116 
111 117 
111 118 
111 119 
111 120 
111 126 
111 129 
111 141 
111 145 
111 153 
111 156 
111 171 
111 176 
111 186 
111 187 
111 201 
111 209 
111 216 
111 225 
112 113 
112 114 
112 115 
112 116 
112 117 
112 118 
112 119 
112 120 
112 127 
112 132 
112 140 
112 142 
112 157 
112 165 
112 172 
112 179 
112 187 
112 189 
112 202 
112 206 
112 212 
112 217 
113 114 
113 115 
113 116 
113 117 
113 118 
113 119 
113 120 
113 128 
113 130 
113 141 
113 143 
113 158 
113 162 
113 169 
113 173 
113 188 
113 193 
113 202 
113 203 
113 211 
113 218 
114 115 
114 116 
114 117 
114 118 
114 119 
114 120 
114 126 
114 129 
114 143 
114 144 
114 154 
114 159 
114 172 
114 174 
114 185 
114 189 
114 197 
114 204 
114 219 
114 222 
115 116 
115 117 
115 118 
115 119 
115 120 
115 130 
115 135 
115 145 
115 149 
115 160 
115 163 
115 175 
115 177 
115 184 
115 190 
115 203 
115 205 
115 216 
115 220 
116 117 
116 118 
116 119 
116 120 
116 124 
116 131 
116 137 
116 146 
116 159 
116 161 
116 173 
116 176 
116 181 
116 191 
116 201 
116 206 
116 213 
116 221 
117 118 
117 119 
117 120 
117 125 
117 132 
117 139 
117 147 
117 158 
117 162 
117 167 
117 177 
117 190 
117 192 
117 207 
117 210 
117 222 
117 224 
118 119 
118 120 
118 123 
118 133 
118 148 
118 150 
118 160 
118 163 
118 174 
118 178 
118 188 
118 193 
118 196 
118 208 
118 215 
118 223 
119 120 
119 131 
119 134 
119 142 
119 149 
119 155 
119 164 
119 171 
119 179 
119 192 
119 194 
119 198 
119 209 
119 218 
119 224 
120 133 
120 135 
120 136 
120 150 
120 156 
120 165 
120 168 
120 180 
120 191 
120 195 
120 204 
120 210 
120 217 
120 225 
121 122 
121 123 
121 124 
121 125 
121 126 
121 127 
121 128 
121 129 
121 130 
121 131 
121 132 
121 133 
121 134 
121 135 
121 136 
121 146 
121 151 
121 164 
121 166 
121 178 
121 181 
121 183 
121 196 
121 199 
121 211 
121 220 
122 123 
122 124 
122 125 
122 126 
122 127 
122 128 
122 129 
122 130 
122 131 
122 132 
122 133 
122 134 
122 135 
122 137 
122 147 
122 151 
122 152 
122 167 
122 180 
122 182 
122 194 
122 197 
122 208 
122 212 
122 214 
123 124 
123 125 
123 126 
123 127 
123 128 
123 129 
123 130 
123 131 
123 132 
123 133 
123 134 
123 135 
123 138 
123 150 
123 153 
123 160 
123 168 
123 174 
123 183 
123 188 
123 196 
123 198 
123 213 
123 215 
124 125 
124 126 
124 127 
124 128 
124 129 
124 130 
124 131 
124 132 
124 133 
124 134 
124 135 
124 137 
124 139 
124 154 
124 159 
124 169 
124 173 
124 181 
124 184 
124 199 
124 201 
124 213 
124 214 
125 126 
125 127 
125 128 
125 129 
125 130 
125 131 
125 132 
125 133 
125 134 
125 135 
125 139 
125 140 
125 155 
125 158 
125 167 
125 170 
125 185 
125 190 
125 200 
125 210 
125 215 
125 224 
126 127 
126 128 
126 129 
126 130 
126 131 
126 132 
126 133 
126 134 
126 135 
126 141 
126 143 
126 154 
126 156 
126 171 
126 172 
126 185 
126 186 
126 197 
126 201 
126 216 
126 222 
127 128 
127 129 
127 130 
127 131 
127 132 
127 133 
127 134 
127 135 
127 142 
127 148 
127 157 
127 161 
127 170 
127 172 
127 182 
127 187 
127 202 
127 205 
127 217 
127 219 
128 129 
128 130 
128 131 
128 132 
128 133 
128 134 
128 135 
128 143 
128 144 
128 157 
128 158 
128 173 
128 175 
128 186 
128 188 
128 200 
128 203 
128 218 
128 221 
129 130 
129 131 
129 132 
129 133 
129 134 
129 135 
129 144 
129 145 
129 153 
129 159 
129 174 
129 176 
129 187 
129 189 
129 204 
129 209 
129 219 
129 225 
130 131 
130 132 
130 133 
130 134 
130 135 
130 141 
130 145 
130 160 
130 162 
130 169 
130 175 
130 190 
130 193 
130 202 
130 205 
130 211 
130 220 
131 132 
131 133 
131 134 
131 135 
131 142 
131 146 
131 155 
131 161 
131 171 
131 176 
131 191 
131 192 
131 198 
131 206 
131 218 
131 221 
132 133 
132 134 
132 135 
132 140 
132 147 
132 162 
132 165 
132 177 
132 179 
132 189 
132 192 
132 206 
132 207 
132 212 
132 222 
133 134 
133 135 
133 136 
133 148 
133 156 
133 163 
133 168 
133 178 
133 191 
133 193 
133 204 
133 208 
133 217 
133 223 
134 135 
134 138 
134 149 
134 152 
134 164 
134 166 
134 179 
134 194 
134 195 
134 207 
134 209 
134 223 
134 224 
135 149 
135 150 
135 163 
135 165 
135 177 
135 180 
135 184 
135 195 
135 203 
135 210 
135 216 
135 225 
136 137 
136 138 
136 139 
136 140 
136 141 
136 142 
136 143 
136 144 
136 145 
136 146 
136 147 
136 148 
136 149 
136 150 
136 151 
136 156 
136 166 
136 168 
136 181 
136 191 
136 196 
136 204 
136 211 
136 217 
137 138 
137 139 
137 140 
137 141 
137 142 
137 143 
137 144 
137 145 
137 146 
137 147 
137 148 
137 149 
137 150 
137 152 
137 159 
137 167 
137 173 
137 181 
137 182 
137 197 
137 201 
137 212 
137 213 
138 139 
138 140 
138 141 
138 142 
138 143 
138 144 
138 145 
138 146 
138 147 
138 148 
138 149 
138 150 
138 152 
138 153 
138 166 
138 168 
138 183 
138 195 
138 198 
138 207 
138 213 
138 223 
139 140 
139 141 
139 142 
139 143 
139 144 
139 145 
139 146 
139 147 
139 148 
139 149 
139 150 
139 154 
139 158 
139 167 
139 169 
139 184 
139 190 
139 199 
139 210 
139 214 
139 224 
140 141 
140 142 
140 143 
140 144 
140 145 
140 146 
140 147 
140 148 
140 149 
140 150 
140 155 
140 165 
140 170 
140 179 
140 185 
140 189 
140 200 
140 206 
140 212 
140 215 
141 142 
141 143 
141 144 
141 145 
141 146 
141 147 
141 148 
141 149 
141 150 
141 156 
141 162 
141 169 
141 171 
141 186 
141 193 
141 201 
141 202 
141 211 
141 216 
142 143 
142 144 
142 145 
142 146 
142 147 
142 148 
142 149 
142 150 
142 155 
142 157 
142 171 
142 172 
142 187 
142 192 
142 198 
142 202 
142 217 
142 218 
143 144 
143 145 
143 146 
143 147 
143 148 
143 149 
143 150 
143 154 
143 158 
143 172 
143 173 
143 185 
143 188 
143 197 
143 203 
143 218 
143 222 
144 145 
144 146 
144 147 
144 148 
144 149 
144 150 
144 157 
144 159 
144 174 
144 175 
144 186 
144 189 
144 200 
144 204 
144 219 
144 221 
145 146 
145 147 
145 148 
145 149 
145 150 
145 153 
145 160 
145 175 
145 176 
145 187 
145 190 
145 205 
145 209 
145 220 
145 225 
146 147 
146 148 
146 149 
146 150 
146 161 
146 164 
146 176 
146 178 
146 183 
146 191 
146 199 
146 206 
146 220 
146 221 
147 148 
147 149 
147 150 
147 151 
147 162 
147 177 
147 180 
147 192 
147 194 
147 207 
147 208 
147 214 
147 222 
148 149 
148 150 
148 161 
148 163 
148 170 
148 178 
148 182 
148 193 
148 205 
148 208 
148 219 
148 223 
149 150 
149 163 
149 164 
149 177 
149 179 
149 184 
149 194 
149 203 
149 209 
149 216 
149 224 
150 160 
150 165 
150 174 
150 180 
150 188 
150 195 
150 196 
150 210 
150 215 
150 225 
151 152 
151 153 
151 154 
151 155 
151 156 
151 157 
151 158 
151 159 
151 160 
151 161 
151 162 
151 163 
151 164 
151 165 
151 166 
151 180 
151 181 
151 194 
151 196 
151 208 
151 211 
151 214 
152 153 
152 154 
152 155 
152 156 
152 157 
152 158 
152 159 
152 160 
152 161 
152 162 
152 163 
152 164 
152 165 
152 166 
152 167 
152 182 
152 195 
152 197 
152 207 
152 212 
152 223 
153 154 
153 155 
153 156 
153 157 
153 158 
153 159 
153 160 
153 161 
153 162 
153 163 
153 164 
153 165 
153 168 
153 176 
153 183 
153 187 
153 198 
153 209 
153 213 
153 225 
154 155 
154 156 
154 157 
154 158 
154 159 
154 160 
154 161 
154 162 
154 163 
154 164 
154 165 
154 169 
154 172 
154 184 
154 185 
154 197 
154 199 
154 214 
154 222 
155 156 
155 157 
155 158 
155 159 
155 160 
155 161 
155 162 
155 163 
155 164 
155 165 
155 170 
155 171 
155 185 
155 192 
155 198 
155 200 
155 215 
155 218 
156 157 
156 158 
156 159 
156 160 
156 161 
156 162 
156 163 
156 164 
156 165 
156 168 
156 171 
156 186 
156 191 
156 201 
156 204 
156 216 
156 217 
157 158 
157 159 
157 160 
157 161 
157 162 
157 163 
157 164 
157 165 
157 172 
157 175 
157 186 
157 187 
157 200 
157 202 
157 217 
157 221 
158 159 
158 160 
158 161 
158 162 
158 163 
158 164 
158 165 
158 167 
158 173 
158 188 
158 190 
158 203 
158 210 
158 218 
158 224 
159 160 
159 161 
159 162 
159 163 
159 164 
159 165 
159 173 
159 174 
159 181 
159 189 
159 201 
159 204 
159 213 
159 219 
160 161 
160 162 
160 163 
160 164 
160 165 
160 174 
160 175 
160 188 
160 190 
160 196 
160 205 
160 215 
160 220 
161 162 
161 163 
161 164 
161 165 
161 170 
161 176 
161 182 
161 191 
161 205 
161 206 
161 219 
161 221 
162 163 
162 164 
162 165 
162 169 
162 177 
162 192 
162 193 
162 202 
162 207 
162 211 
162 222 
163 164 
163 165 
163 177 
163 178 
163 184 
163 193 
163 203 
163 208 
163 216 
163 223 
164 165 
164 178 
164 179 
164 183 
164 194 
164 199 
164 209 
164 220 
164 224 
165 179 
165 180 
165 189 
165 195 
165 206 
165 210 
165 212 
165 225 
166 167 
166 168 
166 169 
166 170 
166 171 
166 172 
166 173 
166 174 
166 175 
166 176 
166 177 
166 178 
166 179 
166 180 
166 181 
166 195 
166 196 
166 207 
166 211 
166 223 
167 168 
167 169 
167 170 
167 171 
167 172 
167 173 
167 174 
167 175 
167 176 
167 177 
167 178 
167 179 
167 180 
167 182 
167 190 
167 197 
167 210 
167 212 
167 224 
168 169 
168 170 
168 171 
168 172 
168 173 
168 174 
168 175 
168 176 
168 177 
168 178 
168 179 
168 180 
168 183 
168 191 
168 198 
168 204 
168 213 
168 217 
169 170 
169 171 
169 172 
169 173 
169 174 
169 175 
169 176 
169 177 
169 178 
169 179 
169 180 
169 184 
169 193 
169 199 
169 202 
169 211 
169 214 
170 171 
170 172 
170 173 
170 174 
170 175 
170 176 
170 177 
170 178 
170 179 
170 180 
170 182 
170 185 
170 200 
170 205 
170 215 
170 219 
171 172 
171 173 
171 174 
171 175 
171 176 
171 177 
171 178 
171 179 
171 180 
171 186 
171 192 
171 198 
171 201 
171 216 
171 218 
172 173 
172 174 
172 175 
172 176 
172 177 
172 178 
172 179 
172 180 
172 185 
172 187 
172 197 
172 202 
172 217 
172 222 
173 174 
173 175 
173 176 
173 177 
173 178 
173 179 
173 180 
173 181 
173 188 
173 201 
173 203 
173 213 
173 218 
174 175 
174 176 
174 177 
174 178 
174 179 
174 180 
174 188 
174 189 
174 196 
174 204 
174 215 
174 219 
175 176 
175 177 
175 178 
175 179 
175 180 
175 186 
175 190 
175 200 
175 205 
175 220 
175 221 
176 177 
176 178 
176 179 
176 180 
176 187 
176 191 
176 206 
176 209 
176 221 
176 225 
177 178 
177 179 
177 180 
177 184 
177 192 
177 203 
177 207 
177 216 
177 222 
178 179 
178 180 
178 183 
178 193 
178 199 
178 208 
178 220 
178 223 
179 180 
179 189 
179 194 
179 206 
179 209 
179 212 
179 224 
180 194 
180 195 
180 208 
180 210 
180 214 
180 225 
181 182 
181 183 
181 184 
181 185 
181 186 
181 187 
181 188 
181 189 
181 190 
181 191 
181 192 
181 193 
181 194 
181 195 
181 196 
181 201 
181 211 
181 213 
182 183 
182 184 
182 185 
182 186 
182 187 
182 188 
182 189 
182 190 
182 191 
182 192 
182 193 
182 194 
182 195 
182 197 
182 205 
182 212 
182 219 
183 184 
183 185 
183 186 
183 187 
183 188 
183 189 
183 190 
183 191 
183 192 
183 193 
183 194 
183 195 
183 198 
183 199 
183 213 
183 220 
184 185 
184 186 
184 187 
184 188 
184 189 
184 190 
184 191 
184 192 
184 193 
184 194 
184 195 
184 199 
184 203 
184 214 
184 216 
185 186 
185 187 
185 188 
185 189 
185 190 
185 191 
185 192 
185 193 
185 194 
185 195 
185 197 
185 200 
185 215 
185 222 
186 187 
186 188 
186 189 
186 190 
186 191 
186 192 
186 193 
186 194 
186 195 
186 200 
186 201 
186 216 
186 221 
187 188 
187 189 
187 190 
187 191 
187 192 
187 193 
187 194 
187 195 
187 202 
187 209 
187 217 
187 225 
188 189 
188 190 
188 191 
188 192 
188 193 
188 194 
188 195 
188 196 
188 203 
188 215 
188 218 
189 190 
189 191 
189 192 
189 193 
189 194 
189 195 
189 204 
189 206 
189 212 
189 219 
190 191 
190 192 
190 193 
190 194 
190 195 
190 205 
190 210 
190 220 
190 224 
191 192 
191 193 
191 194 
191 195 
191 204 
191 206 
191 217 
191 221 
192 193 
192 194 
192 195 
192 198 
192 207 
192 218 
192 222 
193 194 
193 195 
193 202 
193 208 
193 211 
193 223 
194 195 
194 208 
194 209 
194 214 
194 224 
195 207 
195 210 
195 223 
195 225 
196 197 
196 198 
196 199 
196 200 
196 201 
196 202 
196 203 
196 204 
196 205 
196 206 
196 207 
196 208 
196 209 
196 210 
196 211 
196 215 
197 198 
197 199 
197 200 
197 201 
197 202 
197 203 
197 204 
197 205 
197 206 
197 207 
197 208 
197 209 
197 210 
197 212 
197 222 
198 199 
198 200 
198 201 
198 202 
198 203 
198 204 
198 205 
198 206 
198 207 
198 208 
198 209 
198 210 
198 213 
198 218 
199 200 
199 201 
199 202 
199 203 
199 204 
199 205 
199 206 
199 207 
199 208 
199 209 
199 210 
199 214 
199 220 
200 201 
200 202 
200 203 
200 204 
200 205 
200 206 
200 207 
200 208 
200 209 
200 210 
200 215 
200 221 
201 202 
201 203 
201 204 
201 205 
201 206 
201 207 
201 208 
201 209 
201 210 
201 213 
201 216 
202 203 
202 204 
202 205 
202 206 
202 207 
202 208 
202 209 
202 210 
202 211 
202 217 
203 204 
203 205 
203 206 
203 207 
203 208 
203 209 
203 210 
203 216 
203 218 
204 205 
204 206 
204 207 
204 208 
204 209 
204 210 
204 217 
204 219 
205 206 
205 207 
205 208 
205 209 
205 210 
205 219 
205 220 
206 207 
206 208 
206 209 
206 210 
206 212 
206 221 
207 208 
207 209 
207 210 
207 222 
207 223 
208 209 
208 210 
208 214 
208 223 
209 210 
209 224 
209 225 
210 224 
210 225 
211 212 
211 213 
211 214 
211 215 
211 216 
211 217 
211 218 
211 219 
211 220 
211 221 
211 222 
211 223 
211 224 
211 225 
212 213 
212 214 
212 215 
212 216 
212 217 
212 218 
212 219 
212 220 
212 221 
212 222 
212 223 
212 224 
212 225 
213 214 
213 215 
213 216 
213 217 
213 218 
213 219 
213 220 
213 221 
213 222 
213 223 
213 224 
213 225 
214 215 
214 216 
214 217 
214 218 
214 219 
214 220 
214 221 
214 222 
214 223 
214 224 
214 225 
215 216 
215 217 
215 218 
215 219 
215 220 
215 221 
215 222 
215 223 
215 224 
215 225 
216 217 
216 218 
216 219 
216 220 
216 221 
216 222 
216 223 
216 224 
216 225 
217 218 
217 219 
217 220 
217 221 
217 222 
217 223 
217 224 
217 225 
218 219 
218 220 
218 221 
218 222 
218 223 
218 224 
218 225 
219 220 
219 221 
219 222 
219 223 
219 224 
219 225 
220 221 
220 222 
220 223 
220 224 
220 225 
221 222 
221 223 
221 224 
221 225 
222 223 
222 224 
222 225 
223 224 
223 225 
224 225 
